n=10; m= 10; 


75	87	13	11	41	43	93	69	80	13
26	37	25	95	49	12	59	17	46	20
48	4	92	92	72	45	5	98	93	17
26	67	4	14	93	54	21	20	6	18
77	94	9	57	29	79	55	73	65	86
27	69	78	90	23	6	23	28	98	57
91	9	33	97	27	17	97	96	1	30
97	49	17	54	52	74	44	8	75	19
67	72	50	12	54	69	35	26	80	13
77	94	9	57	29	79	55	73	65	86
 


